# 该文件是一个力场参数描述文件，供UniversalMolecularSystem程序读取。
# 符号#表示注释，每行中，#后出现的所有内容均会被忽略
# 文件包含几个Section，由 Keyword {  # Keyword后面有无空格均可。但{不能写在下一行，且}必须单占一行。
#    Contents ...
# }
# 的形式组成。主要包括以下由以下几个Keyword定义的Section（Keyword大小写无所谓）：
# 1. FUNCTIONAL： 力场的函数形式
# 2. ATOMS: 原子种类，质量，电荷等
# 3. PAIRWISE：成对作用参数
# 4. BONDS：键种类和键参数
# 5. ANGLES：键角种类和键参数
# 6. DIHEDRALS：二面角种类和参数
# 7. IMPROPERS: 非正常二面角种类和参数
# 8. MANYBODIES: 多体作用种类和参数
# 各Section在文件中出现的顺序可以随意，除FUNCTIONAL与ATOMS，PAIRWISE外，也不要求每个Section必须出现。且每个Section可以出现多次
# 各Section内部具体的格式要求见下面的例子

FUNCTIONAL{
# 力场的函数形式。在目前的实现中，这里的字段会被原封不动地复制到LAMMPS程序的输入文件中，故它们需符合LAMMPS格式，
    units real
    atom_style full
    bond_style harmonic
    angle_style harmonic
    dihedral_style opls
    improper_style harmonic
    pair_style lj/cut/coul/long 11.0 11.0
    pair_modify mix geometric
    special_bonds lj/coul 0.0 0.0 0.5
    kspace_style pppm 0.0001
}
