C H C H
  1.463
    3.464101615 0.0 0.0
    0.0 3.0 0.0
    0.0 0.0 6.3
  8 8 8 8
Selective dynamics
Direct
  0.9948698502372831  0.9956632048706661  0.0235556675433471  T T T
  0.4948607946906687  0.9956724762543142  0.0235334106627378  T T T
  0.9948674607348925  0.3289845074532531  0.9738136111020667  T T T
  0.4948764741761131  0.3289938569666657  0.9737911585156550  T T T
  0.2448733717679653  0.4956727542423295  0.0235362400746134  T T T
  0.7448626291830438  0.4956646067550586  0.0235550525030385  T T T
  0.2448417234066041  0.8289565610111346  0.9737999444010393  T T T
  0.7448505223215353  0.8289502272079369  0.9738189467241486  T T T
  0.7448745224836127  0.8290294688479438  0.8534666030307511  T T T
  0.4948817412302542  0.3290610601292703  0.8534402301076831  T T T
  0.9948222975372524  0.3290167198589837  0.8534629353230234  T T T
  0.9948542686782973  0.9955336460963506  0.1439061271666441  T T T
  0.4947946321964709  0.9955774796651359  0.1438834610003799  T T T
  0.2448550532679340  0.4955752207175690  0.1438817174391030  T T T
  0.7447839790858319  0.4955356500052596  0.1439007770519551  T T T
  0.2448067987123080  0.8290691864606494  0.8534474176522275  T T T
  0.2448720328679019  0.4956645060739284  0.5235574827180841  T T T
  0.7448637032507879  0.4956743283619663  0.5235354205939021  T T T
  0.2448420068737954  0.8289475004876424  0.4738200910805895  T T T
  0.7448509679006318  0.8289564167363207  0.4737974096951655  T T T
  0.4948708315761680  0.9956716330543304  0.5235345527332895  T T T
  0.9948602159412567  0.9956638320004806  0.5235532809048808  T T T
  0.4948669849711640  0.3289932057797564  0.4737936042608977  T T T
  0.9948771592724612  0.3289852694660433  0.4738125449269576  T T T
  0.9948875333608088  0.3290231334597772  0.3534619424135889  T T T
  0.7448687154488977  0.8290678583838414  0.3534448244585184  T T T
  0.2448112620227151  0.8290243422378429  0.3534676428621123  T T T
  0.2448486165387918  0.4955353848923971  0.6439032488796398  T T T
  0.7447886702100678  0.4955820817635660  0.6438808117844672  T T T
  0.4948605785996780  0.9955724964901941  0.6438847090911580  T T T
  0.9947901669176573  0.9955341713794215  0.6439036766427938  T T T
  0.4948178775371440  0.3290610618899822  0.3534427486555556  T T T
