C H C H 
  1.463000
  3.464101615  0.000000000  0.000000000
  0.000000000  3.000000000  0.000000000
  0.000000000  0.000000000  6.300000000
  8  8  8  8
Selective Dynamics
Fractional
  -0.005149397  -0.004403271  0.023584238  T  T  T
  0.494840594  -0.004392991  0.023558930  T  T  T
  -0.005149611  0.329009540  -0.026209241  T  T  T
  0.494860124  0.329019474  -0.026234968  T  T  T
  0.244851597  0.495605673  0.023559937  T  T  T
  0.744839711  0.495596967  0.023581444  T  T  T
  0.244849557  0.829019282  -0.026232086  T  T  T
  0.744860964  0.829010795  -0.026210306  T  T  T
  0.744909306  0.829124760  -0.146619262  T  T  T
  0.494901707  0.329169319  -0.146644419  T  T  T
  -0.005167955  0.329116947  -0.146618194  T  T  T
  -0.005139610  -0.004547501  0.143993113  T  T  T
  0.494789118  -0.004492893  0.143967332  T  T  T
  0.244868744  0.495498820  0.143968349  T  T  T
  0.744784274  0.495452554  0.143990251  T  T  T
  0.244827600  0.829169451  -0.146641472  T  T  T
  0.244850603  0.495596728  0.523584238  T  T  T
  0.744840595  0.495607008  0.523558930  T  T  T
  0.244850390  0.829009540  0.473790759  T  T  T
  0.744860123  0.829019474  0.473765032  T  T  T
  0.494851598  0.995605673  0.523559937  T  T  T
  0.994839711  0.995596967  0.523581444  T  T  T
  0.494849556  0.329019282  0.473767914  T  T  T
  0.994860962  0.329010795  0.473789694  T  T  T
  0.994909307  0.329124760  0.353380738  T  T  T
  0.744901706  0.829169319  0.353355581  T  T  T
  0.244832045  0.829116947  0.353381806  T  T  T
  0.244860390  0.495452499  0.643993113  T  T  T
  0.744789118  0.495507106  0.643967332  T  T  T
  0.494868745  0.995498820  0.643968349  T  T  T
  0.994784273  0.995452554  0.643990251  T  T  T
  0.494827598  0.329169451  0.353358528  T  T  T
