include "system.in.init"
read_data "system.data"
include "system.in.settings"

group gFix id <= 192
group gMobile id > 192

timestep 0.001
thermo_style custom step temp pe etotal press time
thermo 1000
compute mobileTemp gMobile temp
thermo_modify temp mobileTemp

velocity gMobile create 300.0 134113
fix  fxnvt gMobile nvt temp 300.0 300.0 0.1
dump d1 all custom 1000 system.lammpstrj id mol type x y z vx vy vz
run  1000000

write_data final.data