# Cu 的参数来自EAM，units metal, eneryg in eV;
# 而SPC参数来自OPLS, units real, energy in kcal/mol.
# 需要把H2O的参数中的所有能量转成eV，1 eV = 23.0605 kcal/mol

FUNCTIONAL{
# 力场的函数形式。在目前的实现中，这里的字段会被原封不动地复制到LAMMPS程序的输入文件中，故它们需符合LAMMPS格式，
    units metal
    atom_style full
    bond_style harmonic
    angle_style harmonic
    dihedral_style opls
    improper_style harmonic
    pair_style hybrid/overlay lj/cut/coul/long 11.0 11.0 eam
    #pair_modify mix geometric
    special_bonds lj/coul 0.0 0.0 0.5
    kspace_style pppm 0.0001
}

ATOMS {
    H --       1.008    0.0
    C --       12.0107  0.0
    O --       15.9994  0.0
}

PAIRWISE {
}
