# Ref: Cygan, R. T.; Liang, J.-J.; Kalinichev, A. G., Molecular Models of Hydroxide, Oxyhydroxide, and Clay Phases and
# the Development of a General Force Field. The Journal of Physical Chemistry B 2004, 108, 1255-1266.
# 不包括SPC water的参数。

FUNCTIONAL{
# 力场的函数形式。在目前的实现中，这里的字段会被原封不动地复制到LAMMPS程序的输入文件中，故它们需符合LAMMPS格式，
    units real
    atom_style full
    bond_style harmonic
    angle_style harmonic
    dihedral_style opls
    improper_style harmonic
    pair_style lj/cut/coul/long 11.0 11.0
    pair_modify mix geometric
    special_bonds lj/coul 0.0 0.0 0.5
    kspace_style pppm 0.0001
}

ATOMS {
    ho	--	1.008	0.425	  # hydroxyl hydrogen
    oh	--	15.999	-0.95	  # hydroxyl oxygen
    ob	--	15.999	-1.05	  # bridging oxygen
    obos	--	15.999	-1.18083333333	  # bridging oxygen w oct sub, 原文是-1.1808，但此值更精确
    obts	--	15.999	-1.16875  # bridging oxygen w tetra sub, 原文是-1.1688，但-1.16875更精确
    obss	--	15.999	-1.2996	  # bridging oxygen w double sub，目前没有用到过此类型
    ohs	--	15.999	-1.08083333333	  # hydroxyl oxygen w sub, 原文是-1.1808，但此值更精确
    st	--	28.085	2.1	      # tetrahedral silicon
    ao	--	26.982	1.575	  # octahedral aluminum
    at	--	26.982	1.575	  # tetrahedral aluminum
    mgo	--	24.305	1.36	  # octahedral magnesium
    mgh	--	24.305	1.05	  # hydroxide magnesium
    cao	--	40.078	1.36	  # octahedral calcium
    cah	--	40.078	1.05	  # hydroxide calcium
    feo	--	55.845	1.575	  # octahedral iron
    lio	--	6.94	0.525	  # octahedral lithium
    Na	--	22.99	1	  # aqueous sodium ion
    K	--	39.098	1	  # aqueous potassium ion
    Cs	--	132.91	1	  # aqueous cesium ion
    Ca	--	40.078	2	  # aqueous calcium ion
    Ba	--	137.33	2	  # aqueous barium ion
    Cl	--	35.45	-1	  # aqueous chloride ion
}

PAIRWISE {
    pair_coeff	ho	ho	0	0
    pair_coeff	oh	oh	0.1554	3.165541325
    pair_coeff	ob	ob	0.1554	3.165541325
    pair_coeff	obos	obos	0.1554	3.165541325
    pair_coeff	obts	obts	0.1554	3.165541325
    pair_coeff	obss	obss	0.1554	3.165541325
    pair_coeff	ohs	ohs	0.1554	3.165541325
    pair_coeff	st	st	1.8405E-6	3.302027009
    pair_coeff	ao	ao	1.3298E-6	4.271235724
    pair_coeff	at	at	1.8405E-6	3.302027009
    pair_coeff	mgo	mgo	9.0298E-6	5.264320525
    pair_coeff	mgh	mgh	9.0298E-6	5.264320525
    pair_coeff	cao	cao	5.0298E-6	5.56669155
    pair_coeff	cah	cah	5.0298E-6	5.561702518
    pair_coeff	feo	feo	9.0298E-6	4.906179241
    pair_coeff	lio	lio	9.0298E-6	4.210120072
    pair_coeff	Na	Na	0.1301	2.350012639
    pair_coeff	K	K	0.1	3.334010273
    pair_coeff	Cs	Cs	0.1	3.831042668
    pair_coeff	Ca	Ca	0.1	2.871990198
    pair_coeff	Ba	Ba	0.047	3.816610109
    pair_coeff	Cl	Cl	0.1001	4.399970589
}

BONDS{
    oh    ho    bond_coeff --  554.1349 1.0
    ohs   ho    bond_coeff --  554.1349 1.0
    ob    ho    bond_coeff --  554.1349 1.0
}

ANGLES{
    # o* 指代oh,ohs,ob,obos,obts等
    ho    o*     st   angle_coeff --  30.0  109.47
    ho    o*     ao   angle_coeff --  30.0  109.47
    ho    o*     at   angle_coeff --  30.0  109.47
    ho    o*     mgo   angle_coeff --  30.0  109.47
    ho    o*     mgh  angle_coeff --  30.0  109.47
    ho    o*     cao   angle_coeff --  30.0  109.47
    ho    o*     cah   angle_coeff --  30.0  109.47
    ho    o*     feo   angle_coeff --  30.0  109.47
    ho    o*     lio   angle_coeff --  30.0  109.47
}
