units real
atom_style full
bond_style harmonic
angle_style harmonic
dihedral_style opls
improper_style harmonic
pair_style lj/cut 11.0
pair_modify mix geometric
#special_bonds lj 0.0 0.0 0.5
